50
50.0
0 49 2.27 5.17
1 48 2.77 5.27
2 47 2.09 4.27
3 46 2.26 4.97
4 45 2.33 5.64
5 44 2.57 5.2
6 43 2.19 5.0
7 42 2.79 4.29
8 41 2.41 4.87
9 40 2.73 5.0
10 39 2.26 5.15
11 38 2.66 5.53
12 37 2.51 5.54
13 36 2.56 5.06
14 35 2.89 4.83
15 34 2.82 5.65
16 33 2.12 5.05
17 32 3.0 5.56
18 31 2.29 5.44
19 30 3.0 5.2
20 29 2.59 4.59
21 28 3.11 5.43
22 27 2.7 5.11
23 26 2.62 4.04
24 25 2.4 5.01
25 24 2.75 5.25
26 23 2.78 4.96
27 22 2.18 6.27
28 21 2.52 4.68
29 20 1.95 4.65
30 19 2.58 4.37
31 18 3.06 4.72
32 17 2.06 4.88
33 16 2.25 5.69
34 15 2.33 6.6
35 14 3.07 5.71
36 13 2.54 5.0
37 12 2.08 4.0
38 11 3.36 6.0
39 10 2.8 6.6
40 9 2.22 4.78
41 8 2.38 6.38
42 7 2.29 5.14
43 6 2.5 5.33
44 5 2.2 3.0
45 4 2.25 4.5
46 3 2.33 6.58
47 2 4.5 2.0
48 1 2.0 2.0
